% File represents an instance of a Composite Structure problem to be solved by a CP framework
% Created on 2025-03-26 10:42:02.502
T = 50;
n = 36;
m = 60;
edges = [(1, 2),
(7, 8),
(13, 14),
(19, 20),
(25, 26),
(31, 32),
(2, 3),
(8, 9),
(14, 15),
(20, 21),
(26, 27),
(32, 33),
(3, 4),
(9, 10),
(15, 16),
(21, 22),
(27, 28),
(33, 34),
(4, 5),
(10, 11),
(17, 16),
(23, 22),
(29, 28),
(35, 34),
(5, 6),
(11, 12),
(17, 18),
(24, 23),
(30, 29),
(35, 36),
(7, 1),
(7, 13),
(13, 19),
(19, 25),
(31, 25),
(8, 2),
(8, 14),
(14, 20),
(20, 26),
(32, 26),
(9, 3),
(9, 15),
(15, 21),
(21, 27),
(33, 27),
(10, 4),
(10, 16),
(16, 22),
(22, 28),
(34, 28),
(11, 5),
(17, 11),
(17, 23),
(23, 29),
(35, 29),
(12, 6),
(18, 12),
(24, 18),
(24, 30),
(36, 30)];
counts = [|10, 8, 10, 16,
|10, 6, 10, 12,
|8, 4, 8, 12,
|8, 4, 8, 10,
|8, 4, 8, 8,
|6, 2, 6, 8,
|12, 8, 12, 18,
|10, 6, 10, 18,
|8, 6, 8, 16,
|8, 6, 8, 14,
|8, 4, 8, 14,
|6, 2, 6, 14,
|12, 8, 12, 16,
|10, 6, 10, 16,
|8, 6, 8, 14,
|8, 6, 8, 12,
|10, 6, 10, 14,
|8, 4, 8, 14,
|10, 8, 10, 14,
|10, 4, 10, 14,
|8, 4, 8, 12,
|8, 2, 8, 12,
|10, 4, 10, 12,
|10, 4, 10, 14,
|8, 8, 8, 14,
|8, 2, 8, 14,
|8, 2, 8, 12,
|8, 2, 8, 6,
|10, 2, 10, 8,
|10, 4, 10, 8,
|8, 8, 8, 16,
|8, 4, 8, 14,
|8, 4, 8, 12,
|8, 4, 8, 10,
|10, 4, 10, 12,
|10, 4, 10, 10|];
